; ./prepared/tricera/sv-comp-2020/./mixed/diamond_2-2.c-1_000.smt2
(set-logic HORN)


(declare-fun |inv_main3| ( Int ) Bool)
(declare-fun |inv_main17| ( Int Int ) Bool)
(declare-fun |inv_main23| ( Int Int ) Bool)
(declare-fun |inv_main29| ( Int Int ) Bool)
(declare-fun |inv_main6| ( Int Int ) Bool)
(declare-fun |inv_main5| ( Int Int ) Bool)
(declare-fun |inv_main11| ( Int Int ) Bool)

(assert
  (forall ( (A Int) ) 
    (=>
      (and
        (= A 0)
      )
      (inv_main3 A)
    )
  )
)
(assert
  (forall ( (A Int) (B Int) ) 
    (=>
      (and
        (inv_main5 A B)
        (and (<= 0 B) (not (<= A 98)) (<= 0 A))
      )
      (inv_main6 A B)
    )
  )
)
(assert
  (forall ( (A Int) (B Int) (C Int) (D Int) (E Int) (F Int) (G Int) ) 
    (=>
      (and
        (inv_main5 C B)
        (and (= B (+ (* 2 E) D))
     (= B (+ (* 2 G) F))
     (= A (+ 4 C))
     (= F 0)
     (<= (- 1) D)
     (<= (- 1) F)
     (<= 0 C)
     (<= 0 B)
     (<= D 1)
     (<= C 98)
     (<= F 1)
     (or (<= 1 B) (not (<= 1 D)))
     (or (not (<= 1 F)) (<= 1 B))
     (or (<= B (- 1)) (not (<= D (- 1))))
     (or (not (<= F (- 1))) (<= B (- 1)))
     (= D 0))
      )
      (inv_main11 A B)
    )
  )
)
(assert
  (forall ( (A Int) (B Int) (C Int) (D Int) (E Int) (F Int) (G Int) ) 
    (=>
      (and
        (inv_main5 A B)
        (and (= C A)
     (= B (+ (* 2 E) D))
     (= B (+ (* 2 G) F))
     (= F 0)
     (<= (- 1) D)
     (<= (- 1) F)
     (<= 0 B)
     (<= 0 A)
     (<= D 1)
     (<= A 98)
     (<= F 1)
     (or (<= 1 B) (not (<= 1 D)))
     (or (not (<= 1 F)) (<= 1 B))
     (or (<= B (- 1)) (not (<= D (- 1))))
     (or (not (<= F (- 1))) (<= B (- 1)))
     (not (= D 0)))
      )
      (inv_main11 C B)
    )
  )
)
(assert
  (forall ( (A Int) (B Int) (C Int) (D Int) (E Int) (F Int) (G Int) ) 
    (=>
      (and
        (inv_main5 B A)
        (and (= C (+ 3 B))
     (= A (+ (* 2 E) D))
     (= A (+ (* 2 G) F))
     (not (= F 0))
     (<= (- 1) D)
     (<= (- 1) F)
     (<= 0 B)
     (<= 0 A)
     (<= D 1)
     (<= B 98)
     (<= F 1)
     (or (not (<= 1 D)) (<= 1 A))
     (or (not (<= 1 F)) (<= 1 A))
     (or (not (<= D (- 1))) (<= A (- 1)))
     (or (not (<= F (- 1))) (<= A (- 1)))
     (= D 0))
      )
      (inv_main11 C A)
    )
  )
)
(assert
  (forall ( (A Int) (B Int) (C Int) (D Int) (E Int) (F Int) (G Int) ) 
    (=>
      (and
        (inv_main5 C B)
        (and (= B (+ (* 2 E) D))
     (= B (+ (* 2 G) F))
     (= A (+ (- 1) C))
     (not (= F 0))
     (<= (- 1) D)
     (<= (- 1) F)
     (<= 0 C)
     (<= 0 B)
     (<= D 1)
     (<= C 98)
     (<= F 1)
     (or (<= 1 B) (not (<= 1 D)))
     (or (not (<= 1 F)) (<= 1 B))
     (or (<= B (- 1)) (not (<= D (- 1))))
     (or (not (<= F (- 1))) (<= B (- 1)))
     (not (= D 0)))
      )
      (inv_main11 A B)
    )
  )
)
(assert
  (forall ( (A Int) (B Int) (C Int) (D Int) (E Int) (F Int) (G Int) ) 
    (=>
      (and
        (inv_main17 B C)
        (and (= C (+ (* 2 E) D))
     (= C (+ (* 2 G) F))
     (= A (+ 4 B))
     (= F 0)
     (<= (- 1) D)
     (<= (- 1) F)
     (<= 0 C)
     (<= 0 B)
     (<= D 1)
     (<= F 1)
     (or (not (<= 1 D)) (<= 1 C))
     (or (not (<= 1 F)) (<= 1 C))
     (or (not (<= D (- 1))) (<= C (- 1)))
     (or (not (<= F (- 1))) (<= C (- 1)))
     (= D 0))
      )
      (inv_main23 A C)
    )
  )
)
(assert
  (forall ( (A Int) (B Int) (C Int) (D Int) (E Int) (F Int) (G Int) ) 
    (=>
      (and
        (inv_main17 B C)
        (and (= C (+ (* 2 E) D))
     (= C (+ (* 2 G) F))
     (= A (+ (- 2) B))
     (= F 0)
     (<= (- 1) D)
     (<= (- 1) F)
     (<= 0 C)
     (<= 0 B)
     (<= D 1)
     (<= F 1)
     (or (not (<= 1 D)) (<= 1 C))
     (or (not (<= 1 F)) (<= 1 C))
     (or (not (<= D (- 1))) (<= C (- 1)))
     (or (not (<= F (- 1))) (<= C (- 1)))
     (not (= D 0)))
      )
      (inv_main23 A C)
    )
  )
)
(assert
  (forall ( (A Int) (B Int) (C Int) (D Int) (E Int) (F Int) (G Int) ) 
    (=>
      (and
        (inv_main17 A C)
        (and (= C (+ (* 2 E) D))
     (= C (+ (* 2 G) F))
     (= B (+ 4 A))
     (not (= F 0))
     (<= (- 1) D)
     (<= (- 1) F)
     (<= 0 C)
     (<= 0 A)
     (<= D 1)
     (<= F 1)
     (or (not (<= 1 D)) (<= 1 C))
     (or (not (<= 1 F)) (<= 1 C))
     (or (not (<= D (- 1))) (<= C (- 1)))
     (or (not (<= F (- 1))) (<= C (- 1)))
     (= D 0))
      )
      (inv_main23 B C)
    )
  )
)
(assert
  (forall ( (A Int) (B Int) (C Int) (D Int) (E Int) (F Int) (G Int) ) 
    (=>
      (and
        (inv_main17 C A)
        (and (= B (+ (- 2) C))
     (= A (+ (* 2 E) D))
     (= A (+ (* 2 G) F))
     (not (= F 0))
     (<= (- 1) D)
     (<= (- 1) F)
     (<= 0 C)
     (<= 0 A)
     (<= D 1)
     (<= F 1)
     (or (not (<= 1 D)) (<= 1 A))
     (or (not (<= 1 F)) (<= 1 A))
     (or (not (<= D (- 1))) (<= A (- 1)))
     (or (not (<= F (- 1))) (<= A (- 1)))
     (not (= D 0)))
      )
      (inv_main23 B A)
    )
  )
)
(assert
  (forall ( (A Int) (B Int) (C Int) (D Int) (E Int) (F Int) (G Int) ) 
    (=>
      (and
        (inv_main23 B A)
        (and (= C (+ 4 B))
     (= A (+ (* 2 E) D))
     (= A (+ (* 2 G) F))
     (= F 0)
     (<= (- 1) D)
     (<= (- 1) F)
     (<= 0 B)
     (<= 0 A)
     (<= D 1)
     (<= F 1)
     (or (not (<= 1 D)) (<= 1 A))
     (or (not (<= 1 F)) (<= 1 A))
     (or (not (<= D (- 1))) (<= A (- 1)))
     (or (not (<= F (- 1))) (<= A (- 1)))
     (= D 0))
      )
      (inv_main29 C A)
    )
  )
)
(assert
  (forall ( (A Int) (B Int) (C Int) (D Int) (E Int) (F Int) (G Int) ) 
    (=>
      (and
        (inv_main23 B A)
        (and (= C (+ 4 B))
     (= A (+ (* 2 E) D))
     (= A (+ (* 2 G) F))
     (= F 0)
     (<= (- 1) D)
     (<= (- 1) F)
     (<= 0 B)
     (<= 0 A)
     (<= D 1)
     (<= F 1)
     (or (not (<= 1 D)) (<= 1 A))
     (or (not (<= 1 F)) (<= 1 A))
     (or (not (<= D (- 1))) (<= A (- 1)))
     (or (not (<= F (- 1))) (<= A (- 1)))
     (not (= D 0)))
      )
      (inv_main29 C A)
    )
  )
)
(assert
  (forall ( (A Int) (B Int) (C Int) (D Int) (E Int) (F Int) (G Int) ) 
    (=>
      (and
        (inv_main23 B A)
        (and (= C (+ 6 B))
     (= A (+ (* 2 E) D))
     (= A (+ (* 2 G) F))
     (not (= F 0))
     (<= (- 1) D)
     (<= (- 1) F)
     (<= 0 B)
     (<= 0 A)
     (<= D 1)
     (<= F 1)
     (or (not (<= 1 D)) (<= 1 A))
     (or (not (<= 1 F)) (<= 1 A))
     (or (not (<= D (- 1))) (<= A (- 1)))
     (or (not (<= F (- 1))) (<= A (- 1)))
     (= D 0))
      )
      (inv_main29 C A)
    )
  )
)
(assert
  (forall ( (A Int) (B Int) (C Int) (D Int) (E Int) (F Int) (G Int) ) 
    (=>
      (and
        (inv_main23 C A)
        (and (= B (+ 6 C))
     (= A (+ (* 2 E) D))
     (= A (+ (* 2 G) F))
     (not (= F 0))
     (<= (- 1) D)
     (<= (- 1) F)
     (<= 0 C)
     (<= 0 A)
     (<= D 1)
     (<= F 1)
     (or (not (<= 1 D)) (<= 1 A))
     (or (not (<= 1 F)) (<= 1 A))
     (or (not (<= D (- 1))) (<= A (- 1)))
     (or (not (<= F (- 1))) (<= A (- 1)))
     (not (= D 0)))
      )
      (inv_main29 B A)
    )
  )
)
(assert
  (forall ( (A Int) (B Int) (C Int) (D Int) (E Int) (F Int) (G Int) ) 
    (=>
      (and
        (inv_main29 C A)
        (and (= B (+ 4 C))
     (= A (+ (* 2 E) D))
     (= A (+ (* 2 G) F))
     (= F 0)
     (<= (- 1) D)
     (<= (- 1) F)
     (<= 0 C)
     (<= 0 A)
     (<= D 1)
     (<= F 1)
     (or (not (<= 1 D)) (<= 1 A))
     (or (not (<= 1 F)) (<= 1 A))
     (or (not (<= D (- 1))) (<= A (- 1)))
     (or (not (<= F (- 1))) (<= A (- 1)))
     (= D 0))
      )
      (inv_main5 B A)
    )
  )
)
(assert
  (forall ( (A Int) (B Int) (C Int) (D Int) (E Int) (F Int) (G Int) ) 
    (=>
      (and
        (inv_main29 B A)
        (and (= C (+ (- 2) B))
     (= A (+ (* 2 E) D))
     (= A (+ (* 2 G) F))
     (= F 0)
     (<= (- 1) D)
     (<= (- 1) F)
     (<= 0 B)
     (<= 0 A)
     (<= D 1)
     (<= F 1)
     (or (not (<= 1 D)) (<= 1 A))
     (or (not (<= 1 F)) (<= 1 A))
     (or (not (<= D (- 1))) (<= A (- 1)))
     (or (not (<= F (- 1))) (<= A (- 1)))
     (not (= D 0)))
      )
      (inv_main5 C A)
    )
  )
)
(assert
  (forall ( (A Int) (B Int) (C Int) (D Int) (E Int) (F Int) (G Int) ) 
    (=>
      (and
        (inv_main29 B C)
        (and (= C (+ (* 2 E) D))
     (= C (+ (* 2 G) F))
     (= A (+ (- 2) B))
     (not (= F 0))
     (<= (- 1) D)
     (<= (- 1) F)
     (<= 0 C)
     (<= 0 B)
     (<= D 1)
     (<= F 1)
     (or (not (<= 1 D)) (<= 1 C))
     (or (not (<= 1 F)) (<= 1 C))
     (or (not (<= D (- 1))) (<= C (- 1)))
     (or (not (<= F (- 1))) (<= C (- 1)))
     (= D 0))
      )
      (inv_main5 A C)
    )
  )
)
(assert
  (forall ( (A Int) (B Int) (C Int) (D Int) (E Int) (F Int) (G Int) ) 
    (=>
      (and
        (inv_main29 A B)
        (and (= C (+ (- 8) A))
     (= B (+ (* 2 E) D))
     (= B (+ (* 2 G) F))
     (not (= F 0))
     (<= (- 1) D)
     (<= (- 1) F)
     (<= 0 B)
     (<= 0 A)
     (<= D 1)
     (<= F 1)
     (or (<= 1 B) (not (<= 1 D)))
     (or (not (<= 1 F)) (<= 1 B))
     (or (<= B (- 1)) (not (<= D (- 1))))
     (or (not (<= F (- 1))) (<= B (- 1)))
     (not (= D 0)))
      )
      (inv_main5 C B)
    )
  )
)
(assert
  (forall ( (A Int) (B Int) ) 
    (=>
      (and
        (inv_main3 B)
        (and (<= 0 B) (<= 0 A))
      )
      (inv_main5 B A)
    )
  )
)
(assert
  (forall ( (A Int) (B Int) (C Int) (D Int) (E Int) (F Int) (G Int) ) 
    (=>
      (and
        (inv_main11 C A)
        (and (= B (+ 4 C))
     (= A (+ (* 2 E) D))
     (= A (+ (* 2 G) F))
     (= F 0)
     (<= (- 1) D)
     (<= (- 1) F)
     (<= 0 C)
     (<= 0 A)
     (<= D 1)
     (<= F 1)
     (or (not (<= 1 D)) (<= 1 A))
     (or (not (<= 1 F)) (<= 1 A))
     (or (not (<= D (- 1))) (<= A (- 1)))
     (or (not (<= F (- 1))) (<= A (- 1)))
     (= D 0))
      )
      (inv_main17 B A)
    )
  )
)
(assert
  (forall ( (A Int) (B Int) (C Int) (D Int) (E Int) (F Int) (G Int) ) 
    (=>
      (and
        (inv_main11 C B)
        (and (= B (+ (* 2 E) D))
     (= B (+ (* 2 G) F))
     (= A C)
     (= F 0)
     (<= (- 1) D)
     (<= (- 1) F)
     (<= 0 C)
     (<= 0 B)
     (<= D 1)
     (<= F 1)
     (or (<= 1 B) (not (<= 1 D)))
     (or (not (<= 1 F)) (<= 1 B))
     (or (<= B (- 1)) (not (<= D (- 1))))
     (or (not (<= F (- 1))) (<= B (- 1)))
     (not (= D 0)))
      )
      (inv_main17 A B)
    )
  )
)
(assert
  (forall ( (A Int) (B Int) (C Int) (D Int) (E Int) (F Int) (G Int) ) 
    (=>
      (and
        (inv_main11 B A)
        (and (= C (+ 4 B))
     (= A (+ (* 2 E) D))
     (= A (+ (* 2 G) F))
     (not (= F 0))
     (<= (- 1) D)
     (<= (- 1) F)
     (<= 0 B)
     (<= 0 A)
     (<= D 1)
     (<= F 1)
     (or (not (<= 1 D)) (<= 1 A))
     (or (not (<= 1 F)) (<= 1 A))
     (or (not (<= D (- 1))) (<= A (- 1)))
     (or (not (<= F (- 1))) (<= A (- 1)))
     (= D 0))
      )
      (inv_main17 C A)
    )
  )
)
(assert
  (forall ( (A Int) (B Int) (C Int) (D Int) (E Int) (F Int) (G Int) ) 
    (=>
      (and
        (inv_main11 A C)
        (and (= C (+ (* 2 E) D))
     (= C (+ (* 2 G) F))
     (= B A)
     (not (= F 0))
     (<= (- 1) D)
     (<= (- 1) F)
     (<= 0 C)
     (<= 0 A)
     (<= D 1)
     (<= F 1)
     (or (not (<= 1 D)) (<= 1 C))
     (or (not (<= 1 F)) (<= 1 C))
     (or (not (<= D (- 1))) (<= C (- 1)))
     (or (not (<= F (- 1))) (<= C (- 1)))
     (not (= D 0)))
      )
      (inv_main17 B C)
    )
  )
)
(assert
  (forall ( (A Int) (B Int) (C Int) (D Int) (E Int) (F Int) ) 
    (=>
      (and
        (inv_main6 A B)
        (and (= B (+ (* 2 F) E))
     (= A (+ (* 2 D) C))
     (<= (- 1) C)
     (<= (- 1) E)
     (<= 0 B)
     (<= 0 A)
     (<= C 1)
     (<= E 1)
     (or (<= 1 A) (not (<= 1 C)))
     (or (not (<= 1 E)) (<= 1 B))
     (or (<= A (- 1)) (not (<= C (- 1))))
     (or (not (<= E (- 1))) (<= B (- 1)))
     (not (= C E)))
      )
      false
    )
  )
)

(check-sat)
(exit)
